20	5
0	10	2	3	7	9	5	8	6	1	10	4
1	1	11
2	2	16	18
3	1	18
4	1	17
5	1	14
6	2	14	17
7	1	18
8	1	16
9	2	17	15
10	3	11	12	16
11	2	17	20
12	1	13
13	3	17	14	15
14	3	18	20	19
15	1	21
16	1	21
17	1	21
18	1	21
19	1	21
20	1	21
21	0
0	0	0	0	0	0	0
1	7	3	2	4	1	4
2	9	4	2	0	0	0
3	6	3	2	4	3	3
4	10	0	0	3	0	0
5	3	3	4	2	4	0
6	6	5	1	1	2	3
7	5	5	2	0	2	0
8	8	3	5	4	0	3
9	4	0	0	1	0	0
10	8	4	0	0	4	0
11	3	4	1	2	0	5
12	3	2	5	2	5	4
13	2	2	1	3	4	3
14	6	0	5	1	5	5
15	4	5	3	0	3	3
16	3	3	3	0	1	0
17	5	1	5	2	1	5
18	7	0	5	5	0	5
19	4	2	5	5	5	5
20	6	2	5	4	4	5
21	0	0	0	0	0	0
5	5	5	5	5
